************************************************************************
file with basedata            : md384_.bas
initial value random generator: 813324263
************************************************************************
projects                      :  1
jobs (incl. supersource/sink ):  22
horizon                       :  147
RESOURCES
  - renewable                 :  2   R
  - nonrenewable              :  2   N
  - doubly constrained        :  0   D
************************************************************************
PROJECT INFORMATION:
pronr.  #jobs rel.date duedate tardcost  MPM-Time
    1     20      0       19       15       19
************************************************************************
PRECEDENCE RELATIONS:
jobnr.    #modes  #successors   successors
   1        1          3           2   3   4
   2        3          3          13  19  21
   3        3          2          17  21
   4        3          1           5
   5        3          3           6   7   8
   6        3          3           9  13  16
   7        3          3           9  10  13
   8        3          3           9  19  20
   9        3          2          11  14
  10        3          3          12  14  16
  11        3          1          15
  12        3          2          15  18
  13        3          1          17
  14        3          1          15
  15        3          1          21
  16        3          3          17  18  19
  17        3          1          20
  18        3          1          20
  19        3          1          22
  20        3          1          22
  21        3          1          22
  22        1          0        
************************************************************************
REQUESTS/DURATIONS:
jobnr. mode duration  R 1  R 2  N 1  N 2
------------------------------------------------------------------------
  1      1     0       0    0    0    0
  2      1     6       5   10   10    6
         2     7       5    4    8    6
         3     8       5    4    7    4
  3      1     1      10   10    7   10
         2     4       8    8    6    6
         3     8       8    7    5    5
  4      1     2       8    6   10    7
         2     4       8    6   10    5
         3     7       6    5   10    3
  5      1     2       8   10    1    4
         2     5       7    7    1    3
         3     6       5    4    1    3
  6      1     4       7    4    3   10
         2     6       6    4    2   10
         3     7       5    4    2    9
  7      1     1       8    6    4    4
         2     4       7    5    3    4
         3     5       6    5    3    4
  8      1     7       1    4    6    5
         2     7       1    3    9    6
         3     9       1    3    5    5
  9      1     1       4    4    7   10
         2     1       3    6    7    7
         3    10       2    2    2    5
 10      1     2       5   10    7    4
         2     4       5    7    6    4
         3     6       5    5    6    4
 11      1     2       3    7   10    7
         2     3       3    5    9    6
         3     7       3    4    9    4
 12      1     4       8    9    4    9
         2     8       7    8    3    6
         3     9       6    8    3    5
 13      1     1      10    7    7    9
         2     3       6    6    5    6
         3     7       5    3    4    6
 14      1     1       7   10    6    4
         2     7       7   10    6    3
         3    10       5    9    4    2
 15      1     1       6    4    3   10
         2     6       6    2    3    6
         3     6       4    3    3    1
 16      1     3       3    5    8    8
         2     7       3    4    8    8
         3     8       3    4    8    7
 17      1     1       9    7    3   10
         2     3       8    6    2   10
         3     9       8    3    2   10
 18      1     1       2    6    1    6
         2     5       2    5    1    6
         3     6       1    4    1    3
 19      1     2       5    7    6    8
         2     3       4    7    3    8
         3     5       3    5    2    8
 20      1     4      10    5    5    2
         2     7       9    5    4    2
         3     8       8    2    2    2
 21      1     4       5    8    8    2
         2     5       5    7    7    2
         3     6       3    7    5    1
 22      1     0       0    0    0    0
************************************************************************
RESOURCEAVAILABILITIES:
  R 1  R 2  N 1  N 2
   25   29  119  136
************************************************************************
MAXIMAL LAGS:
from  to  type  delay
    1   22   ES      0
    1    2   ES      0
    2   22   ES      0
    1    3   ES      0
    3   22   ES      0
    1    4   ES      0
    4   22   ES      0
    1    5   ES      0
    5   22   ES      0
    1    6   ES      0
    6   22   ES      0
    1    7   ES      0
    7   22   ES      0
    1    8   ES      0
    8   22   ES      0
    1    9   ES      0
    9   22   ES      0
    1   10   ES      0
   10   22   ES      0
    1   11   ES      0
   11   22   ES      0
    1   12   ES      0
   12   22   ES      0
    1   13   ES      0
   13   22   ES      0
    1   14   ES      0
   14   22   ES      0
    1   15   ES      0
   15   22   ES      0
    1   16   ES      0
   16   22   ES      0
    1   17   ES      0
   17   22   ES      0
    1   18   ES      0
   18   22   ES      0
    1   19   ES      0
   19   22   ES      0
    1   20   ES      0
   20   22   ES      0
    1   21   ES      0
   21   22   ES      0
    1   22   ES      0
    2   13   SS      1
    2   13   SE     -4
    2   13   ES     -8
    2   13   EE     -1
    2   19   SS     -3
    2   19   SE      7
    2   19   ES      2
    2   19   EE      5
    2   21   SS    -11
    2   21   SE      0
    2   21   ES     -4
    2   21   EE     -5
    3   17   SS      3
    3   17   SE    -10
    3   17   ES      7
    3   17   EE      8
    3   21   SS      0
    3   21   SE    -11
    3   21   ES     10
    3   21   EE      8
    4    5   SS     -6
    4    5   SE     -3
    4    5   ES     12
    4    5   EE      4
    5    6   SS      7
    5    6   SE      3
    5    6   ES     -5
    5    6   EE    -10
    5    7   SS     -9
    5    7   SE      1
    5    7   ES    -11
    5    7   EE     -9
    5    8   SS     -1
    5    8   SE      0
    5    8   ES     -2
    5    8   EE     -5
    6    9   SS      6
    6    9   SE      7
    6    9   ES     -1
    6    9   EE     -7
    6   13   SS    -10
    6   13   SE     -9
    6   13   ES     12
    6   13   EE     11
    6   16   SS      8
    6   16   SE     11
    6   16   ES      9
    6   16   EE     -2
    7    9   SS     -4
    7    9   SE     -7
    7    9   ES     -4
    7    9   EE    -12
    7   10   SS    -10
    7   10   SE     -1
    7   10   ES    -12
    7   10   EE      9
    7   13   SS     11
    7   13   SE     -4
    7   13   ES     -6
    7   13   EE      8
    8    9   SS      2
    8    9   SE      7
    8    9   ES    -11
    8    9   EE     10
    8   19   SS      4
    8   19   SE      1
    8   19   ES      5
    8   19   EE    -12
    8   20   SS      4
    8   20   SE      4
    8   20   ES     -5
    8   20   EE     -2
    9   11   SS      4
    9   11   SE     10
    9   11   ES     11
    9   11   EE     -1
    9   14   SS     -1
    9   14   SE      4
    9   14   ES      8
    9   14   EE     -5
   10   12   SS      1
   10   12   SE     -4
   10   12   ES     -2
   10   12   EE     -4
   10   14   SS      8
   10   14   SE      5
   10   14   ES      2
   10   14   EE     -1
   10   16   SS     12
   10   16   SE      7
   10   16   ES      2
   10   16   EE      6
   11   15   SS      6
   11   15   SE     12
   11   15   ES     12
   11   15   EE     10
   12   15   SS      3
   12   15   SE     -4
   12   15   ES     -8
   12   15   EE     -1
   12   18   SS     11
   12   18   SE     -3
   12   18   ES     -7
   12   18   EE      8
   13   17   SS      6
   13   17   SE      8
   13   17   ES    -11
   13   17   EE     11
   14   15   SS     12
   14   15   SE     -3
   14   15   ES     -6
   14   15   EE      0
   15   21   SS      4
   15   21   SE     -7
   15   21   ES      3
   15   21   EE     -2
   16   17   SS      0
   16   17   SE      4
   16   17   ES     -4
   16   17   EE      6
   16   18   SS      3
   16   18   SE      9
   16   18   ES      4
   16   18   EE     -2
   16   19   SS    -11
   16   19   SE     10
   16   19   ES      2
   16   19   EE      4
   17   20   SS      8
   17   20   SE      1
   17   20   ES      3
   17   20   EE     -7
   18   20   SS     12
   18   20   SE     -2
   18   20   ES     -5
   18   20   EE    -11
************************************************************************
